WARNING: for repeatability, setting FPU to use double precision
============================[ Problem Statistics ]=============================
|                                                                             |
|  Number of variables:           100                                         |
|  Number of clauses:             449                                         |
|  Parse time:                   0.00 s                                       |
|  Eliminated clauses:           0.00 Mb                                      |
|  Simplification time:          0.00 s                                       |
|                                                                             |
============================[ Search Statistics ]==============================
| Conflicts |          ORIGINAL         |          LEARNT          | Progress |
|           |    Vars  Clauses Literals |    Limit  Clauses Lit/Cl |          |
===============================================================================
|       100 |      96      444     1360 |      162      100      7 |  0.010 % |
|       250 |      94      432     1323 |      179       88      5 |  2.010 % |
===============================================================================
restarts              : 3
conflicts             : 304            (81349 /sec)
decisions             : 386            (0.00 % random) (103291 /sec)
propagations          : 7143           (1911426 /sec)
conflict literals     : 1797           (21.90 % deleted)
Memory used           : 13.00 MB
CPU time              : 0.003737 s

SATISFIABLE
